(set-logic QF_NRA)
(set-info :source |Benchmarks generated from hycomp (https://es-static.fbk.eu/tools/hycomp/). BMC instances of non-linear hybrid automata taken from: Alessandro Cimatti, Sergio Mover, Stefano Tonetta, A quantifier-free SMT encoding of non-linear hybrid automata, FMCAD 2012 and Alessandro Cimatti, Sergio Mover, Stefano Tonetta, Quantier-free encoding of invariants for Hybrid Systems, Formal Methods in System Design. This instance solves a BMC problem of depth 2 and uses the quantifier free encoding with equivalences encoding. Contacts: Sergio Mover (mover@fbk.eu), Stefano Tonetta (tonettas@fbk.eu), Alessandro Cimatti (cimatti@fbk.eu).|)
(set-info :smt-lib-version 2.0)
(set-info :category "industrial")
(set-info :status unsat)
;; MathSAT API call trace
;; generated on Mon Mar 19 10:47:30 2012
(declare-fun b.y__AT0 () Real)
(declare-fun b.counter.0__AT0 () Bool)
(declare-fun b.event_is_timed__AT2 () Bool)
(declare-fun b.EVENT.0__AT0 () Bool)
(declare-fun b.counter.3__AT0 () Bool)
(declare-fun b.counter.1__AT0 () Bool)
(declare-fun b.event_is_timed__AT1 () Bool)
(declare-fun b.bool_atom__AT1 () Bool)
(declare-fun b.bool_atom__AT2 () Bool)
(declare-fun b.y__AT2 () Real)
(declare-fun b.time__AT2 () Real)
(declare-fun b.delta__AT2 () Real)
(declare-fun b.g__AT0 () Real)
(declare-fun b.speed_y__AT0 () Real)
(declare-fun b.x__AT2 () Real)
(declare-fun b.EVENT.0__AT2 () Bool)
(declare-fun b.x__AT1 () Real)
(declare-fun b.EVENT.1__AT2 () Bool)
(declare-fun b.y__AT1 () Real)
(declare-fun b.counter.2__AT0 () Bool)
(declare-fun b.counter.0__AT1 () Bool)
(declare-fun b.counter.1__AT1 () Bool)
(declare-fun b.speed_y__AT2 () Real)
(declare-fun b.counter.2__AT1 () Bool)
(declare-fun b.event_is_timed__AT0 () Bool)
(declare-fun b.counter.3__AT1 () Bool)
(declare-fun b.bool_atom__AT0 () Bool)
(declare-fun b.x__AT0 () Real)
(declare-fun b.counter.0__AT2 () Bool)
(declare-fun b.delta__AT1 () Real)
(declare-fun b.speed_y__AT1 () Real)
(declare-fun b.counter.1__AT2 () Bool)
(declare-fun b.time__AT1 () Real)
(declare-fun b.EVENT.0__AT1 () Bool)
(declare-fun b.counter.2__AT2 () Bool)
(declare-fun b.time__AT0 () Real)
(declare-fun b.EVENT.1__AT1 () Bool)
(declare-fun b.counter.3__AT2 () Bool)
(declare-fun b.delta__AT0 () Real)
(declare-fun b.EVENT.1__AT0 () Bool)
(assert (let ((.def_70 (* (- 1.0) b.g__AT0)))
(let ((.def_73 (* (/ 1 2) .def_70)))
(let ((.def_86 (* 2.0 .def_73)))
(let ((.def_450 (* .def_86 b.delta__AT2)))
(let ((.def_451 (+ b.speed_y__AT2 .def_450)))
(let ((.def_455 (<= .def_451 0.0 )))
(let ((.def_454 (<= b.speed_y__AT2 0.0 )))
(let ((.def_456 (and .def_454 .def_455)))
(let ((.def_452 (<= 0.0 .def_451)))
(let ((.def_449 (<= 0.0 b.speed_y__AT2)))
(let ((.def_453 (and .def_449 .def_452)))
(let ((.def_457 (or .def_453 .def_456)))
(let ((.def_440 (* b.speed_y__AT2 b.delta__AT2)))
(let ((.def_438 (* b.delta__AT2 b.delta__AT2)))
(let ((.def_439 (* .def_73 .def_438)))
(let ((.def_441 (+ .def_439 .def_440)))
(let ((.def_424 (* (- 1.0) b.x__AT2)))
(let ((.def_425 (* b.x__AT2 .def_424)))
(let ((.def_442 (* (- 1.0) .def_425)))
(let ((.def_445 (+ .def_442 .def_441)))
(let ((.def_446 (+ b.y__AT2 .def_445)))
(let ((.def_447 (<= 0.0 .def_446)))
(let ((.def_426 (<= .def_425 b.y__AT2)))
(let ((.def_448 (and .def_426 .def_447)))
(let ((.def_458 (and .def_448 .def_457)))
(let ((.def_62 (<= b.g__AT0 10.0 )))
(let ((.def_61 (<= 8.0 b.g__AT0)))
(let ((.def_63 (and .def_61 .def_62)))
(let ((.def_459 (and .def_63 .def_458)))
(let ((.def_166 (not b.counter.0__AT1)))
(let ((.def_156 (not b.counter.1__AT1)))
(let ((.def_430 (and .def_156 .def_166)))
(let ((.def_433 (or b.counter.3__AT1 .def_430)))
(let ((.def_161 (not b.counter.2__AT1)))
(let ((.def_431 (and .def_161 .def_430)))
(let ((.def_175 (not b.counter.3__AT1)))
(let ((.def_432 (or .def_175 .def_431)))
(let ((.def_434 (and .def_432 .def_433)))
(let ((.def_427 (and .def_63 .def_426)))
(let ((.def_421 (not b.EVENT.0__AT2)))
(let ((.def_419 (not b.EVENT.1__AT2)))
(let ((.def_422 (or .def_419 .def_421)))
(let ((.def_6 (not b.counter.0__AT2)))
(let ((.def_4 (not b.counter.1__AT2)))
(let ((.def_412 (or .def_4 .def_6)))
(let ((.def_416 (or b.counter.3__AT2 .def_412)))
(let ((.def_413 (or b.counter.2__AT2 .def_412)))
(let ((.def_9 (not b.counter.2__AT2)))
(let ((.def_411 (or .def_6 .def_9)))
(let ((.def_414 (and .def_411 .def_413)))
(let ((.def_12 (not b.counter.3__AT2)))
(let ((.def_415 (or .def_12 .def_414)))
(let ((.def_417 (and .def_415 .def_416)))
(let ((.def_423 (and .def_417 .def_422)))
(let ((.def_428 (and .def_423 .def_427)))
(let ((.def_406 (<= 0.0 b.delta__AT1)))
(let ((.def_245 (not b.EVENT.0__AT1)))
(let ((.def_243 (not b.EVENT.1__AT1)))
(let ((.def_283 (and .def_243 .def_245)))
(let ((.def_285 (not .def_283)))
(let ((.def_407 (or .def_285 .def_406)))
(let ((.def_408 (or b.EVENT.1__AT1 .def_407)))
(let ((.def_320 (= b.bool_atom__AT1 b.bool_atom__AT2)))
(let ((.def_316 (= b.counter.0__AT2 b.counter.0__AT1)))
(let ((.def_314 (= b.counter.1__AT2 b.counter.1__AT1)))
(let ((.def_312 (= b.counter.2__AT2 b.counter.2__AT1)))
(let ((.def_311 (= b.counter.3__AT2 b.counter.3__AT1)))
(let ((.def_313 (and .def_311 .def_312)))
(let ((.def_315 (and .def_313 .def_314)))
(let ((.def_317 (and .def_315 .def_316)))
(let ((.def_402 (and .def_317 .def_320)))
(let ((.def_403 (or .def_285 .def_402)))
(let ((.def_404 (or b.EVENT.1__AT1 .def_403)))
(let ((.def_391 (* .def_70 b.delta__AT1)))
(let ((.def_392 (* (- 1.0) b.speed_y__AT2)))
(let ((.def_395 (+ .def_392 .def_391)))
(let ((.def_396 (+ b.speed_y__AT1 .def_395)))
(let ((.def_397 (= .def_396 0.0 )))
(let ((.def_382 (* (- 1.0) b.y__AT2)))
(let ((.def_262 (* b.speed_y__AT1 b.delta__AT1)))
(let ((.def_386 (+ .def_262 .def_382)))
(let ((.def_260 (* b.delta__AT1 b.delta__AT1)))
(let ((.def_261 (* .def_73 .def_260)))
(let ((.def_387 (+ .def_261 .def_386)))
(let ((.def_388 (+ b.y__AT1 .def_387)))
(let ((.def_389 (= .def_388 0.0 )))
(let ((.def_303 (= b.x__AT1 b.x__AT2)))
(let ((.def_390 (and .def_303 .def_389)))
(let ((.def_398 (and .def_390 .def_397)))
(let ((.def_399 (or .def_285 .def_398)))
(let ((.def_306 (= b.y__AT1 b.y__AT2)))
(let ((.def_377 (and .def_303 .def_306)))
(let ((.def_309 (= b.speed_y__AT1 b.speed_y__AT2)))
(let ((.def_378 (and .def_309 .def_377)))
(let ((.def_374 (= b.delta__AT1 0.0 )))
(let ((.def_375 (and .def_283 .def_374)))
(let ((.def_376 (not .def_375)))
(let ((.def_379 (or .def_376 .def_378)))
(let ((.def_380 (or b.EVENT.1__AT1 .def_379)))
(let ((.def_367 (and .def_309 .def_317)))
(let ((.def_368 (or b.bool_atom__AT1 .def_367)))
(let ((.def_343 (or .def_6 b.counter.0__AT1)))
(let ((.def_342 (or b.counter.0__AT2 .def_166)))
(let ((.def_344 (and .def_342 .def_343)))
(let ((.def_345 (and .def_4 .def_344)))
(let ((.def_346 (or b.counter.1__AT1 .def_345)))
(let ((.def_341 (or b.counter.1__AT2 .def_156)))
(let ((.def_347 (and .def_341 .def_346)))
(let ((.def_358 (and .def_9 .def_347)))
(let ((.def_359 (or b.counter.2__AT1 .def_358)))
(let ((.def_353 (and .def_4 .def_166)))
(let ((.def_354 (or b.counter.1__AT1 .def_353)))
(let ((.def_355 (and .def_341 .def_354)))
(let ((.def_356 (and b.counter.2__AT2 .def_355)))
(let ((.def_357 (or .def_161 .def_356)))
(let ((.def_360 (and .def_357 .def_359)))
(let ((.def_361 (and b.counter.3__AT2 .def_360)))
(let ((.def_362 (or b.counter.3__AT1 .def_361)))
(let ((.def_348 (and b.counter.2__AT2 .def_347)))
(let ((.def_349 (or b.counter.2__AT1 .def_348)))
(let ((.def_337 (or b.counter.1__AT2 b.counter.1__AT1)))
(let ((.def_335 (and .def_4 b.counter.0__AT2)))
(let ((.def_336 (or .def_156 .def_335)))
(let ((.def_338 (and .def_336 .def_337)))
(let ((.def_339 (and .def_9 .def_338)))
(let ((.def_340 (or .def_161 .def_339)))
(let ((.def_350 (and .def_340 .def_349)))
(let ((.def_351 (and .def_12 .def_350)))
(let ((.def_352 (or .def_175 .def_351)))
(let ((.def_363 (and .def_352 .def_362)))
(let ((.def_332 (* b.speed_y__AT2 b.speed_y__AT2)))
(let ((.def_152 (* b.speed_y__AT1 b.speed_y__AT1)))
(let ((.def_333 (= .def_152 .def_332)))
(let ((.def_330 (+ b.speed_y__AT1 b.speed_y__AT2)))
(let ((.def_331 (= .def_330 0.0 )))
(let ((.def_334 (and .def_331 .def_333)))
(let ((.def_364 (and .def_334 .def_363)))
(let ((.def_329 (not b.bool_atom__AT1)))
(let ((.def_365 (or .def_329 .def_364)))
(let ((.def_271 (<= 0.0 b.speed_y__AT1)))
(let ((.def_326 (not .def_271)))
(let ((.def_248 (* (- 1.0) b.x__AT1)))
(let ((.def_249 (* b.x__AT1 .def_248)))
(let ((.def_325 (= b.y__AT1 .def_249)))
(let ((.def_327 (and .def_325 .def_326)))
(let ((.def_328 (= b.bool_atom__AT1 .def_327)))
(let ((.def_366 (and .def_328 .def_365)))
(let ((.def_369 (and .def_366 .def_368)))
(let ((.def_370 (and .def_303 .def_369)))
(let ((.def_371 (and .def_306 .def_370)))
(let ((.def_372 (or .def_283 .def_371)))
(let ((.def_373 (or b.EVENT.1__AT1 .def_372)))
(let ((.def_381 (and .def_373 .def_380)))
(let ((.def_400 (and .def_381 .def_399)))
(let ((.def_290 (= b.time__AT1 b.time__AT2)))
(let ((.def_304 (and .def_290 .def_303)))
(let ((.def_307 (and .def_304 .def_306)))
(let ((.def_310 (and .def_307 .def_309)))
(let ((.def_318 (and .def_310 .def_317)))
(let ((.def_321 (and .def_318 .def_320)))
(let ((.def_322 (or .def_243 .def_321)))
(let ((.def_293 (* (- 1.0) b.time__AT2)))
(let ((.def_296 (+ b.delta__AT1 .def_293)))
(let ((.def_297 (+ b.time__AT1 .def_296)))
(let ((.def_298 (= .def_297 0.0 )))
(let ((.def_299 (or .def_285 .def_298)))
(let ((.def_300 (or b.EVENT.1__AT1 .def_299)))
(let ((.def_291 (or .def_283 .def_290)))
(let ((.def_292 (or b.EVENT.1__AT1 .def_291)))
(let ((.def_301 (and .def_292 .def_300)))
(let ((.def_323 (and .def_301 .def_322)))
(let ((.def_287 (= .def_285 b.event_is_timed__AT2)))
(let ((.def_284 (= b.event_is_timed__AT1 .def_283)))
(let ((.def_288 (and .def_284 .def_287)))
(let ((.def_324 (and .def_288 .def_323)))
(let ((.def_401 (and .def_324 .def_400)))
(let ((.def_405 (and .def_401 .def_404)))
(let ((.def_409 (and .def_405 .def_408)))
(let ((.def_410 (and .def_243 .def_409)))
(let ((.def_429 (and .def_410 .def_428)))
(let ((.def_435 (and .def_429 .def_434)))
(let ((.def_272 (* .def_86 b.delta__AT1)))
(let ((.def_273 (+ b.speed_y__AT1 .def_272)))
(let ((.def_277 (<= .def_273 0.0 )))
(let ((.def_276 (<= b.speed_y__AT1 0.0 )))
(let ((.def_278 (and .def_276 .def_277)))
(let ((.def_274 (<= 0.0 .def_273)))
(let ((.def_275 (and .def_271 .def_274)))
(let ((.def_279 (or .def_275 .def_278)))
(let ((.def_263 (+ .def_261 .def_262)))
(let ((.def_264 (* (- 1.0) .def_249)))
(let ((.def_267 (+ .def_264 .def_263)))
(let ((.def_268 (+ b.y__AT1 .def_267)))
(let ((.def_269 (<= 0.0 .def_268)))
(let ((.def_250 (<= .def_249 b.y__AT1)))
(let ((.def_270 (and .def_250 .def_269)))
(let ((.def_280 (and .def_270 .def_279)))
(let ((.def_281 (and .def_63 .def_280)))
(let ((.def_32 (not b.counter.0__AT0)))
(let ((.def_30 (not b.counter.1__AT0)))
(let ((.def_33 (and .def_30 .def_32)))
(let ((.def_255 (or .def_33 b.counter.3__AT0)))
(let ((.def_38 (not b.counter.3__AT0)))
(let ((.def_35 (not b.counter.2__AT0)))
(let ((.def_36 (and .def_33 .def_35)))
(let ((.def_254 (or .def_36 .def_38)))
(let ((.def_256 (and .def_254 .def_255)))
(let ((.def_251 (and .def_63 .def_250)))
(let ((.def_246 (or .def_243 .def_245)))
(let ((.def_236 (or .def_156 .def_166)))
(let ((.def_240 (or b.counter.3__AT1 .def_236)))
(let ((.def_237 (or b.counter.2__AT1 .def_236)))
(let ((.def_235 (or .def_161 .def_166)))
(let ((.def_238 (and .def_235 .def_237)))
(let ((.def_239 (or .def_175 .def_238)))
(let ((.def_241 (and .def_239 .def_240)))
(let ((.def_247 (and .def_241 .def_246)))
(let ((.def_252 (and .def_247 .def_251)))
(let ((.def_230 (<= 0.0 b.delta__AT0)))
(let ((.def_51 (not b.EVENT.0__AT0)))
(let ((.def_49 (not b.EVENT.1__AT0)))
(let ((.def_98 (and .def_49 .def_51)))
(let ((.def_100 (not .def_98)))
(let ((.def_231 (or .def_100 .def_230)))
(let ((.def_232 (or b.EVENT.1__AT0 .def_231)))
(let ((.def_140 (= b.bool_atom__AT0 b.bool_atom__AT1)))
(let ((.def_135 (= b.counter.0__AT0 b.counter.0__AT1)))
(let ((.def_132 (= b.counter.1__AT0 b.counter.1__AT1)))
(let ((.def_129 (= b.counter.2__AT0 b.counter.2__AT1)))
(let ((.def_127 (= b.counter.3__AT0 b.counter.3__AT1)))
(let ((.def_130 (and .def_127 .def_129)))
(let ((.def_133 (and .def_130 .def_132)))
(let ((.def_136 (and .def_133 .def_135)))
(let ((.def_226 (and .def_136 .def_140)))
(let ((.def_227 (or .def_100 .def_226)))
(let ((.def_228 (or b.EVENT.1__AT0 .def_227)))
(let ((.def_215 (* b.delta__AT0 .def_70)))
(let ((.def_216 (* (- 1.0) b.speed_y__AT1)))
(let ((.def_219 (+ .def_216 .def_215)))
(let ((.def_220 (+ b.speed_y__AT0 .def_219)))
(let ((.def_221 (= .def_220 0.0 )))
(let ((.def_207 (* (- 1.0) b.y__AT1)))
(let ((.def_76 (* b.delta__AT0 b.speed_y__AT0)))
(let ((.def_210 (+ .def_76 .def_207)))
(let ((.def_69 (* b.delta__AT0 b.delta__AT0)))
(let ((.def_74 (* .def_69 .def_73)))
(let ((.def_211 (+ .def_74 .def_210)))
(let ((.def_212 (+ b.y__AT0 .def_211)))
(let ((.def_213 (= .def_212 0.0 )))
(let ((.def_118 (= b.x__AT0 b.x__AT1)))
(let ((.def_214 (and .def_118 .def_213)))
(let ((.def_222 (and .def_214 .def_221)))
(let ((.def_223 (or .def_100 .def_222)))
(let ((.def_121 (= b.y__AT0 b.y__AT1)))
(let ((.def_202 (and .def_118 .def_121)))
(let ((.def_124 (= b.speed_y__AT0 b.speed_y__AT1)))
(let ((.def_203 (and .def_124 .def_202)))
(let ((.def_199 (= b.delta__AT0 0.0 )))
(let ((.def_200 (and .def_98 .def_199)))
(let ((.def_201 (not .def_200)))
(let ((.def_204 (or .def_201 .def_203)))
(let ((.def_205 (or b.EVENT.1__AT0 .def_204)))
(let ((.def_192 (and .def_124 .def_136)))
(let ((.def_193 (or b.bool_atom__AT0 .def_192)))
(let ((.def_167 (or b.counter.0__AT0 .def_166)))
(let ((.def_165 (or .def_32 b.counter.0__AT1)))
(let ((.def_168 (and .def_165 .def_167)))
(let ((.def_169 (and .def_156 .def_168)))
(let ((.def_170 (or b.counter.1__AT0 .def_169)))
(let ((.def_164 (or .def_30 b.counter.1__AT1)))
(let ((.def_171 (and .def_164 .def_170)))
(let ((.def_183 (and .def_161 .def_171)))
(let ((.def_184 (or b.counter.2__AT0 .def_183)))
(let ((.def_178 (and .def_32 .def_156)))
(let ((.def_179 (or b.counter.1__AT0 .def_178)))
(let ((.def_180 (and .def_164 .def_179)))
(let ((.def_181 (and b.counter.2__AT1 .def_180)))
(let ((.def_182 (or .def_35 .def_181)))
(let ((.def_185 (and .def_182 .def_184)))
(let ((.def_186 (and b.counter.3__AT1 .def_185)))
(let ((.def_187 (or b.counter.3__AT0 .def_186)))
(let ((.def_172 (and b.counter.2__AT1 .def_171)))
(let ((.def_173 (or b.counter.2__AT0 .def_172)))
(let ((.def_159 (or b.counter.1__AT0 b.counter.1__AT1)))
(let ((.def_157 (and b.counter.0__AT1 .def_156)))
(let ((.def_158 (or .def_30 .def_157)))
(let ((.def_160 (and .def_158 .def_159)))
(let ((.def_162 (and .def_160 .def_161)))
(let ((.def_163 (or .def_35 .def_162)))
(let ((.def_174 (and .def_163 .def_173)))
(let ((.def_176 (and .def_174 .def_175)))
(let ((.def_177 (or .def_38 .def_176)))
(let ((.def_188 (and .def_177 .def_187)))
(let ((.def_153 (* b.speed_y__AT0 b.speed_y__AT0)))
(let ((.def_154 (= .def_152 .def_153)))
(let ((.def_150 (+ b.speed_y__AT0 b.speed_y__AT1)))
(let ((.def_151 (= .def_150 0.0 )))
(let ((.def_155 (and .def_151 .def_154)))
(let ((.def_189 (and .def_155 .def_188)))
(let ((.def_149 (not b.bool_atom__AT0)))
(let ((.def_190 (or .def_149 .def_189)))
(let ((.def_85 (<= 0.0 b.speed_y__AT0)))
(let ((.def_146 (not .def_85)))
(let ((.def_56 (* (- 1.0) b.x__AT0)))
(let ((.def_57 (* b.x__AT0 .def_56)))
(let ((.def_145 (= b.y__AT0 .def_57)))
(let ((.def_147 (and .def_145 .def_146)))
(let ((.def_148 (= b.bool_atom__AT0 .def_147)))
(let ((.def_191 (and .def_148 .def_190)))
(let ((.def_194 (and .def_191 .def_193)))
(let ((.def_195 (and .def_118 .def_194)))
(let ((.def_196 (and .def_121 .def_195)))
(let ((.def_197 (or .def_98 .def_196)))
(let ((.def_198 (or b.EVENT.1__AT0 .def_197)))
(let ((.def_206 (and .def_198 .def_205)))
(let ((.def_224 (and .def_206 .def_223)))
(let ((.def_105 (= b.time__AT0 b.time__AT1)))
(let ((.def_119 (and .def_105 .def_118)))
(let ((.def_122 (and .def_119 .def_121)))
(let ((.def_125 (and .def_122 .def_124)))
(let ((.def_137 (and .def_125 .def_136)))
(let ((.def_141 (and .def_137 .def_140)))
(let ((.def_142 (or .def_49 .def_141)))
(let ((.def_108 (* (- 1.0) b.time__AT1)))
(let ((.def_111 (+ b.delta__AT0 .def_108)))
(let ((.def_112 (+ b.time__AT0 .def_111)))
(let ((.def_113 (= .def_112 0.0 )))
(let ((.def_114 (or .def_100 .def_113)))
(let ((.def_115 (or b.EVENT.1__AT0 .def_114)))
(let ((.def_106 (or .def_98 .def_105)))
(let ((.def_107 (or b.EVENT.1__AT0 .def_106)))
(let ((.def_116 (and .def_107 .def_115)))
(let ((.def_143 (and .def_116 .def_142)))
(let ((.def_102 (= .def_100 b.event_is_timed__AT1)))
(let ((.def_99 (= b.event_is_timed__AT0 .def_98)))
(let ((.def_103 (and .def_99 .def_102)))
(let ((.def_144 (and .def_103 .def_143)))
(let ((.def_225 (and .def_144 .def_224)))
(let ((.def_229 (and .def_225 .def_228)))
(let ((.def_233 (and .def_229 .def_232)))
(let ((.def_234 (and .def_49 .def_233)))
(let ((.def_253 (and .def_234 .def_252)))
(let ((.def_257 (and .def_253 .def_256)))
(let ((.def_87 (* b.delta__AT0 .def_86)))
(let ((.def_88 (+ b.speed_y__AT0 .def_87)))
(let ((.def_92 (<= .def_88 0.0 )))
(let ((.def_91 (<= b.speed_y__AT0 0.0 )))
(let ((.def_93 (and .def_91 .def_92)))
(let ((.def_89 (<= 0.0 .def_88)))
(let ((.def_90 (and .def_85 .def_89)))
(let ((.def_94 (or .def_90 .def_93)))
(let ((.def_77 (+ .def_74 .def_76)))
(let ((.def_78 (* (- 1.0) .def_57)))
(let ((.def_81 (+ .def_78 .def_77)))
(let ((.def_82 (+ b.y__AT0 .def_81)))
(let ((.def_83 (<= 0.0 .def_82)))
(let ((.def_58 (<= .def_57 b.y__AT0)))
(let ((.def_84 (and .def_58 .def_83)))
(let ((.def_95 (and .def_84 .def_94)))
(let ((.def_96 (and .def_63 .def_95)))
(let ((.def_64 (and .def_58 .def_63)))
(let ((.def_52 (or .def_49 .def_51)))
(let ((.def_42 (or .def_30 .def_32)))
(let ((.def_46 (or b.counter.3__AT0 .def_42)))
(let ((.def_43 (or b.counter.2__AT0 .def_42)))
(let ((.def_41 (or .def_32 .def_35)))
(let ((.def_44 (and .def_41 .def_43)))
(let ((.def_45 (or .def_38 .def_44)))
(let ((.def_47 (and .def_45 .def_46)))
(let ((.def_53 (and .def_47 .def_52)))
(let ((.def_65 (and .def_53 .def_64)))
(let ((.def_39 (and .def_36 .def_38)))
(let ((.def_27 (= b.y__AT0 10.0 )))
(let ((.def_23 (= b.x__AT0 0.0 )))
(let ((.def_19 (= b.time__AT0 0.0 )))
(let ((.def_21 (and .def_19 b.event_is_timed__AT0)))
(let ((.def_24 (and .def_21 .def_23)))
(let ((.def_28 (and .def_24 .def_27)))
(let ((.def_40 (and .def_28 .def_39)))
(let ((.def_66 (and .def_40 .def_65)))
(let ((.def_7 (and .def_4 .def_6)))
(let ((.def_14 (or .def_7 b.counter.3__AT2)))
(let ((.def_10 (and .def_7 .def_9)))
(let ((.def_13 (or .def_10 .def_12)))
(let ((.def_15 (and .def_13 .def_14)))
(let ((.def_16 (not .def_15)))
(let ((.def_67 (and .def_16 .def_66)))
(let ((.def_97 (and .def_67 .def_96)))
(let ((.def_258 (and .def_97 .def_257)))
(let ((.def_282 (and .def_258 .def_281)))
(let ((.def_436 (and .def_282 .def_435)))
(let ((.def_460 (and .def_436 .def_459)))
.def_460)))))))))))))))))))))))))))))))))))))))))))))))))))))))))))))))))))))))))))))))))))))))))))))))))))))))))))))))))))))))))))))))))))))))))))))))))))))))))))))))))))))))))))))))))))))))))))))))))))))))))))))))))))))))))))))))))))))))))))))))))))))))))))))))))))))))))))))))))))))))))))))))))))))))))))))))))))))))))))))))))))))))))))))))))))))))))))))))))))))))))))))))))))))))))))))))))))))))))
(check-sat)
(exit)
